20
6650 6950
10360 10053
3600 10800
12050 7250
6650 2300
5400 5750
13100 6950
19800 800
5400 8450
3100 10950
6650 10800
12050 10950
14200 11650
16800 10950
9450 11650
9243 7102
10150 5750
16800 3300
200 12200
7300 3300
